<number of tasks>
50

<cycle time>
1000

<order strength>
0.198


<task times>
1 388
2 40
3 74
4 68
5 205
6 145
7 308
8 223
9 111
10 189
11 27
12 382
13 161
14 574
15 186
16 209
17 123
18 61
19 74
20 116
21 376
22 40
23 455
24 90
25 20
26 323
27 112
28 136
29 99
30 33
31 109
32 37
33 91
34 47
35 60
36 368
37 501
38 164
39 167
40 420
41 519
42 23
43 200
44 212
45 85
46 144
47 219
48 204
49 145
50 132

<precedence relations>
2,10
2,11
3,15
6,37
6,38
6,39
7,9
7,12
9,18
10,14
10,15
10,33
11,16
11,17
12,13
12,15
13,21
13,25
14,22
14,23
15,43
15,49
16,19
16,24
16,30
17,38
18,20
18,21
20,27
20,29
20,31
21,26
21,28
23,48
24,32
25,30
27,33
29,36
29,37
29,38
29,39
29,44
30,34
32,35
32,37
33,39
34,41
35,42
36,40
37,43
39,46
39,48
40,47
41,44
41,50
42,45
42,49

<end>
